aux_benchmarks/lp2sat/smokers_6_2_prob.lp.lp.cnf
p cnf 277 854
18 56 0
-18 -56 0
19 -18 0
-19 18 0
20 57 0
-20 -57 0
-72 -21 -81 0
-72 21 0
-73 -21 -81 0
-73 21 0
85 -20 0
-85 20 0
174 -85 0
-174 85 0
81 -85 0
-81 85 0
86 -28 -29 0
-86 28 0
-86 29 0
175 -86 0
-175 86 0
176 -72 -86 78 0
-176 72 0
-176 86 0
-176 -78 0
177 -89 -86 78 72 0
-177 89 0
-177 86 0
-177 -78 0
-177 -72 0
178 -89 -78 -72 -86 0
-178 89 0
-178 78 0
-178 72 0
-178 86 0
89 -73 -86 79 0
-89 73 0
-89 86 0
-89 -79 0
87 -86 -88 0
-87 86 0
-87 88 0
179 -87 81 0
-179 87 0
-179 -81 0
180 -78 -72 -86 0
-180 78 0
-180 72 0
-180 86 0
181 -86 78 72 0
-181 86 0
-181 -78 0
-181 -72 0
91 -72 -86 78 0
-91 72 0
-91 86 0
-91 -78 0
182 -90 -73 -86 79 0
-182 90 0
-182 73 0
-182 86 0
-182 -79 0
183 -91 -79 -86 73 0
-183 91 0
-183 79 0
-183 86 0
-183 -73 0
-87 92 0
184 -86 -92 0
-184 86 0
-184 92 0
93 -25 -34 0
-93 25 0
-93 34 0
185 -93 0
-185 93 0
186 -72 -93 76 0
-186 72 0
-186 93 0
-186 -76 0
187 -96 -93 76 72 0
-187 96 0
-187 93 0
-187 -76 0
-187 -72 0
188 -96 -76 -72 -93 0
-188 96 0
-188 76 0
-188 72 0
-188 93 0
96 -73 -93 77 0
-96 73 0
-96 93 0
-96 -77 0
94 -93 -95 0
-94 93 0
-94 95 0
189 -94 81 0
-189 94 0
-189 -81 0
190 -76 -72 -93 0
-190 76 0
-190 72 0
-190 93 0
191 -93 76 72 0
-191 93 0
-191 -76 0
-191 -72 0
98 -72 -93 76 0
-98 72 0
-98 93 0
-98 -76 0
192 -97 -73 -93 77 0
-192 97 0
-192 73 0
-192 93 0
-192 -77 0
193 -98 -77 -93 73 0
-193 98 0
-193 77 0
-193 93 0
-193 -73 0
-94 99 0
194 -93 -99 0
-194 93 0
-194 99 0
100 -23 -36 0
-100 23 0
-100 36 0
195 -100 0
-195 100 0
196 -72 -100 74 0
-196 72 0
-196 100 0
-196 -74 0
197 -103 -100 74 72 0
-197 103 0
-197 100 0
-197 -74 0
-197 -72 0
198 -103 -74 -72 -100 0
-198 103 0
-198 74 0
-198 72 0
-198 100 0
103 -73 -100 75 0
-103 73 0
-103 100 0
-103 -75 0
101 -100 -102 0
-101 100 0
-101 102 0
199 -101 81 0
-199 101 0
-199 -81 0
200 -74 -72 -100 0
-200 74 0
-200 72 0
-200 100 0
201 -100 74 72 0
-201 100 0
-201 -74 0
-201 -72 0
105 -72 -100 74 0
-105 72 0
-105 100 0
-105 -74 0
202 -104 -73 -100 75 0
-202 104 0
-202 73 0
-202 100 0
-202 -75 0
203 -105 -75 -100 73 0
-203 105 0
-203 75 0
-203 100 0
-203 -73 0
-101 106 0
204 -100 -106 0
-204 100 0
-204 106 0
-83 84 0
-21 83 81 0
22 58 0
-22 -58 0
-74 -23 -108 0
-74 23 0
-75 -23 -108 0
-75 23 0
112 -22 0
-112 22 0
205 -112 0
-205 112 0
108 -112 0
-108 112 0
113 -28 -31 0
-113 28 0
-113 31 0
206 -113 0
-206 113 0
207 -74 -113 78 0
-207 74 0
-207 113 0
-207 -78 0
208 -116 -113 78 74 0
-208 116 0
-208 113 0
-208 -78 0
-208 -74 0
209 -116 -78 -74 -113 0
-209 116 0
-209 78 0
-209 74 0
-209 113 0
116 -75 -113 79 0
-116 75 0
-116 113 0
-116 -79 0
114 -113 -115 0
-114 113 0
-114 115 0
210 -114 108 0
-210 114 0
-210 -108 0
211 -78 -74 -113 0
-211 78 0
-211 74 0
-211 113 0
212 -113 78 74 0
-212 113 0
-212 -78 0
-212 -74 0
118 -74 -113 78 0
-118 74 0
-118 113 0
-118 -78 0
213 -117 -75 -113 79 0
-213 117 0
-213 75 0
-213 113 0
-213 -79 0
214 -118 -79 -113 75 0
-214 118 0
-214 79 0
-214 113 0
-214 -75 0
-114 119 0
215 -113 -119 0
-215 113 0
-215 119 0
120 -21 -35 0
-120 21 0
-120 35 0
216 -120 0
-216 120 0
217 -74 -120 72 0
-217 74 0
-217 120 0
-217 -72 0
218 -123 -120 72 74 0
-218 123 0
-218 120 0
-218 -72 0
-218 -74 0
219 -123 -72 -74 -120 0
-219 123 0
-219 72 0
-219 74 0
-219 120 0
123 -75 -120 73 0
-123 75 0
-123 120 0
-123 -73 0
121 -120 -122 0
-121 120 0
-121 122 0
220 -121 108 0
-220 121 0
-220 -108 0
221 -72 -74 -120 0
-221 72 0
-221 74 0
-221 120 0
222 -120 72 74 0
-222 120 0
-222 -72 0
-222 -74 0
125 -74 -120 72 0
-125 74 0
-125 120 0
-125 -72 0
223 -124 -75 -120 73 0
-223 124 0
-223 75 0
-223 120 0
-223 -73 0
224 -125 -73 -120 75 0
-224 125 0
-224 73 0
-224 120 0
-224 -75 0
-121 126 0
225 -120 -126 0
-225 120 0
-225 126 0
-110 111 0
-23 110 108 0
24 59 0
-24 -59 0
-76 -25 -128 0
-76 25 0
-77 -25 -128 0
-77 25 0
132 -24 0
-132 24 0
226 -132 0
-226 132 0
128 -132 0
-128 132 0
133 -28 -33 0
-133 28 0
-133 33 0
227 -133 0
-227 133 0
228 -76 -133 78 0
-228 76 0
-228 133 0
-228 -78 0
229 -136 -133 78 76 0
-229 136 0
-229 133 0
-229 -78 0
-229 -76 0
230 -136 -78 -76 -133 0
-230 136 0
-230 78 0
-230 76 0
-230 133 0
136 -77 -133 79 0
-136 77 0
-136 133 0
-136 -79 0
134 -133 -135 0
-134 133 0
-134 135 0
231 -134 128 0
-231 134 0
-231 -128 0
232 -78 -76 -133 0
-232 78 0
-232 76 0
-232 133 0
233 -133 78 76 0
-233 133 0
-233 -78 0
-233 -76 0
138 -76 -133 78 0
-138 76 0
-138 133 0
-138 -78 0
234 -137 -77 -133 79 0
-234 137 0
-234 77 0
-234 133 0
-234 -79 0
235 -138 -79 -133 77 0
-235 138 0
-235 79 0
-235 133 0
-235 -77 0
-134 139 0
236 -133 -139 0
-236 133 0
-236 139 0
140 -21 -37 0
-140 21 0
-140 37 0
237 -140 0
-237 140 0
238 -76 -140 72 0
-238 76 0
-238 140 0
-238 -72 0
239 -143 -140 72 76 0
-239 143 0
-239 140 0
-239 -72 0
-239 -76 0
240 -143 -72 -76 -140 0
-240 143 0
-240 72 0
-240 76 0
-240 140 0
143 -77 -140 73 0
-143 77 0
-143 140 0
-143 -73 0
141 -140 -142 0
-141 140 0
-141 142 0
241 -141 128 0
-241 141 0
-241 -128 0
242 -72 -76 -140 0
-242 72 0
-242 76 0
-242 140 0
243 -140 72 76 0
-243 140 0
-243 -72 0
-243 -76 0
145 -76 -140 72 0
-145 76 0
-145 140 0
-145 -72 0
244 -144 -77 -140 73 0
-244 144 0
-244 77 0
-244 140 0
-244 -73 0
245 -145 -73 -140 77 0
-245 145 0
-245 73 0
-245 140 0
-245 -77 0
-141 146 0
246 -140 -146 0
-246 140 0
-246 146 0
-130 131 0
-25 130 128 0
26 60 0
-26 -60 0
27 61 0
-27 -61 0
-78 -28 -148 0
-78 28 0
-79 -28 -148 0
-79 28 0
152 -27 0
-152 27 0
247 -152 0
-247 152 0
148 -152 0
-148 152 0
153 -21 -30 0
-153 21 0
-153 30 0
248 -153 0
-248 153 0
249 -78 -153 72 0
-249 78 0
-249 153 0
-249 -72 0
250 -156 -153 72 78 0
-250 156 0
-250 153 0
-250 -72 0
-250 -78 0
251 -156 -72 -78 -153 0
-251 156 0
-251 72 0
-251 78 0
-251 153 0
156 -79 -153 73 0
-156 79 0
-156 153 0
-156 -73 0
154 -153 -155 0
-154 153 0
-154 155 0
252 -154 148 0
-252 154 0
-252 -148 0
253 -72 -78 -153 0
-253 72 0
-253 78 0
-253 153 0
254 -153 72 78 0
-254 153 0
-254 -72 0
-254 -78 0
158 -78 -153 72 0
-158 78 0
-158 153 0
-158 -72 0
255 -157 -79 -153 73 0
-255 157 0
-255 79 0
-255 153 0
-255 -73 0
256 -158 -73 -153 79 0
-256 158 0
-256 73 0
-256 153 0
-256 -79 0
-154 159 0
257 -153 -159 0
-257 153 0
-257 159 0
160 -25 -26 0
-160 25 0
-160 26 0
258 -160 0
-258 160 0
259 -78 -160 76 0
-259 78 0
-259 160 0
-259 -76 0
260 -163 -160 76 78 0
-260 163 0
-260 160 0
-260 -76 0
-260 -78 0
261 -163 -76 -78 -160 0
-261 163 0
-261 76 0
-261 78 0
-261 160 0
163 -79 -160 77 0
-163 79 0
-163 160 0
-163 -77 0
161 -160 -162 0
-161 160 0
-161 162 0
262 -161 148 0
-262 161 0
-262 -148 0
263 -76 -78 -160 0
-263 76 0
-263 78 0
-263 160 0
264 -160 76 78 0
-264 160 0
-264 -76 0
-264 -78 0
165 -78 -160 76 0
-165 78 0
-165 160 0
-165 -76 0
265 -164 -79 -160 77 0
-265 164 0
-265 79 0
-265 160 0
-265 -77 0
266 -165 -77 -160 79 0
-266 165 0
-266 77 0
-266 160 0
-266 -79 0
-161 166 0
267 -160 -166 0
-267 160 0
-267 166 0
167 -23 -32 0
-167 23 0
-167 32 0
268 -167 0
-268 167 0
269 -78 -167 74 0
-269 78 0
-269 167 0
-269 -74 0
270 -170 -167 74 78 0
-270 170 0
-270 167 0
-270 -74 0
-270 -78 0
271 -170 -74 -78 -167 0
-271 170 0
-271 74 0
-271 78 0
-271 167 0
170 -79 -167 75 0
-170 79 0
-170 167 0
-170 -75 0
168 -167 -169 0
-168 167 0
-168 169 0
272 -168 148 0
-272 168 0
-272 -148 0
273 -74 -78 -167 0
-273 74 0
-273 78 0
-273 167 0
274 -167 74 78 0
-274 167 0
-274 -74 0
-274 -78 0
172 -78 -167 74 0
-172 78 0
-172 167 0
-172 -74 0
275 -171 -79 -167 75 0
-275 171 0
-275 79 0
-275 167 0
-275 -75 0
276 -172 -75 -167 79 0
-276 172 0
-276 75 0
-276 167 0
-276 -79 0
-168 173 0
277 -167 -173 0
-277 167 0
-277 173 0
-150 151 0
-28 150 148 0
29 62 0
-29 -62 0
30 63 0
-30 -63 0
31 64 0
-31 -64 0
32 65 0
-32 -65 0
33 66 0
-33 -66 0
34 67 0
-34 -67 0
35 68 0
-35 -68 0
36 69 0
-36 -69 0
37 70 0
-37 -70 0
38 71 0
-38 -71 0
39 -38 0
-39 38 0
40 0
41 0
42 0
43 0
44 0
45 0
46 0
47 0
48 0
49 0
50 0
51 0
52 0
53 0
54 0
55 0
56 18 0
-56 -18 0
57 20 0
-57 -20 0
58 22 0
-58 -22 0
59 24 0
-59 -24 0
60 26 0
-60 -26 0
61 27 0
-61 -27 0
62 29 0
-62 -29 0
63 30 0
-63 -30 0
64 31 0
-64 -31 0
65 32 0
-65 -32 0
66 33 0
-66 -33 0
67 34 0
-67 -34 0
68 35 0
-68 -35 0
69 36 0
-69 -36 0
70 37 0
-70 -37 0
71 38 0
-71 -38 0
-1 0
-1 0
-2 0
-3 0
-4 0
-5 0
-6 0
-7 0
-8 0
-9 0
-10 0
-11 0
-12 0
-13 0
-14 0
-15 0
-16 0
-17 0
-21 174 175 185 195 0
21 -174 0
21 -175 0
21 -185 0
21 -195 0
-23 205 206 216 0
23 -205 0
23 -206 0
23 -216 0
-25 226 227 237 0
25 -226 0
25 -227 0
25 -237 0
-28 247 248 258 268 0
28 -247 0
28 -248 0
28 -258 0
28 -268 0
-80 0
-82 0
-83 179 189 199 0
83 -179 0
83 -189 0
83 -199 0
-84 184 194 204 0
84 -184 0
84 -194 0
84 -204 0
-88 176 177 178 0
88 -176 0
88 -177 0
88 -178 0
-90 180 181 0
90 -180 0
90 -181 0
-92 182 183 0
92 -182 0
92 -183 0
-95 186 187 188 0
95 -186 0
95 -187 0
95 -188 0
-97 190 191 0
97 -190 0
97 -191 0
-99 192 193 0
99 -192 0
99 -193 0
-102 196 197 198 0
102 -196 0
102 -197 0
102 -198 0
-104 200 201 0
104 -200 0
104 -201 0
-106 202 203 0
106 -202 0
106 -203 0
-107 0
-109 0
-110 210 220 0
110 -210 0
110 -220 0
-111 215 225 0
111 -215 0
111 -225 0
-115 207 208 209 0
115 -207 0
115 -208 0
115 -209 0
-117 211 212 0
117 -211 0
117 -212 0
-119 213 214 0
119 -213 0
119 -214 0
-122 217 218 219 0
122 -217 0
122 -218 0
122 -219 0
-124 221 222 0
124 -221 0
124 -222 0
-126 223 224 0
126 -223 0
126 -224 0
-127 0
-129 0
-130 231 241 0
130 -231 0
130 -241 0
-131 236 246 0
131 -236 0
131 -246 0
-135 228 229 230 0
135 -228 0
135 -229 0
135 -230 0
-137 232 233 0
137 -232 0
137 -233 0
-139 234 235 0
139 -234 0
139 -235 0
-142 238 239 240 0
142 -238 0
142 -239 0
142 -240 0
-144 242 243 0
144 -242 0
144 -243 0
-146 244 245 0
146 -244 0
146 -245 0
-147 0
-149 0
-150 252 262 272 0
150 -252 0
150 -262 0
150 -272 0
-151 257 267 277 0
151 -257 0
151 -267 0
151 -277 0
-155 249 250 251 0
155 -249 0
155 -250 0
155 -251 0
-157 253 254 0
157 -253 0
157 -254 0
-159 255 256 0
159 -255 0
159 -256 0
-162 259 260 261 0
162 -259 0
162 -260 0
162 -261 0
-164 263 264 0
164 -263 0
164 -264 0
-166 265 266 0
166 -265 0
166 -266 0
-169 269 270 271 0
169 -269 0
169 -270 0
169 -271 0
-171 273 274 0
171 -273 0
171 -274 0
-173 275 276 0
173 -275 0
173 -276 0
c p auxilliary 1 2 3 4 5 6 7 8 9 10 11 12 13 14 15 16 17 56 57 58 59 60 61 62 63 64 65 66 67 68 69 70 71 72 73 74 75 76 77 78 79 80 81 82 83 84 85 86 87 88 89 90 91 92 93 94 95 96 97 98 99 100 101 102 103 104 105 106 107 108 109 110 111 112 113 114 115 116 117 118 119 120 121 122 123 124 125 126 127 128 129 130 131 132 133 134 135 136 137 138 139 140 141 142 143 144 145 146 147 148 149 150 151 152 153 154 155 156 157 158 159 160 161 162 163 164 165 166 167 168 169 170 171 172 173 174 175 176 177 178 179 180 181 182 183 184 185 186 187 188 189 190 191 192 193 194 195 196 197 198 199 200 201 202 203 204 205 206 207 208 209 210 211 212 213 214 215 216 217 218 219 220 221 222 223 224 225 226 227 228 229 230 231 232 233 234 235 236 237 238 239 240 241 242 243 244 245 246 247 248 249 250 251 252 253 254 255 256 257 258 259 260 261 262 263 264 265 266 267 268 269 270 271 272 273 274 275 276 277 0
